10 10 3

0 363 307 267 281 494 207 489 258 135 
496 0 408 317 415 322 142 496 110 259 
201 127 0 185 391 481 277 219 84 438 
250 69 251 0 372 382 264 138 370 464 
51 358 428 343 0 109 335 159 475 364 
459 226 180 424 133 0 464 108 475 445 
335 193 235 479 149 254 0 436 471 342 
199 315 211 369 73 275 297 0 122 335 
338 439 65 201 397 241 87 76 0 325 
51 134 55 446 176 405 180 154 53 0 

174.75 0 8
174.75 1 0
174.75 2 5
174.75 3 0
174.75 4 8
174.75 5 4
174.75 6 3
174.75 7 6
174.75 8 9
174.75 9 6

